unknown
(model
; cardinality of BoundSet is 3
(declare-sort BoundSet 0)
; rep: @uc_BoundSet_0
; rep: @uc_BoundSet_1
; rep: @uc_BoundSet_2
(declare-sort UnboundSet 0)
(define-fun IsLessFatThan ((BOUND_VARIABLE_369 BoundSet) (BOUND_VARIABLE_370 BoundSet)) Bool true)
(define-fun IsNotAsHotAs ((BOUND_VARIABLE_369 BoundSet) (BOUND_VARIABLE_370 BoundSet)) Bool false)
(define-fun ShouldBeEatenInsteadOf ((BOUND_VARIABLE_369 BoundSet) (BOUND_VARIABLE_370 BoundSet)) Bool false)
)
